12 48 3 10
14 2 7 9 8 15 8 8 11 3 17 17 10 13 20 12 8 6 4 16 19 5 4 12 3 13 10 15 8 20 19 9 10 13 1 20 6 19 2 8 5 1 14 15 9 20 16 17 
0.72 1.27 0.87 5.21 5.73 6.71 7.28 6.79 7.26 1.41 0.97 2.22 0.68 2.98 5.85 6.17 5.89 0.33 5.78 3.01 2.87 5.72 0.69 2.72 3.79 1.65 4.12 1.73 5.62 4.73 4.83 3.43 2.56 6.07 5.99 3.65 5.24 7.19 5.67 4.4 0.48 0.65 0.3 4.37 3.81 5.2 3.89 6.11 
2.02 1.58 2.14 4.59 4.18 2.74 5.86 3.11 1.45 2.67 3.02 1.83 2.33 5.68 4.69 1.02 7.04 4.85 6.81 1.02 4.3 7.28 6.59 2.63 3.64 4.26 5.96 7.19 2.71 6.46 0.13 4.73 7.35 4.72 4.33 0.79 4.81 2.17 2.77 3.52 2.46 5.34 6.04 6.36 7.14 1 2.26 3.3 
3.35 2.18 6.76 3.49 2.49 2.65 3.78 0.99 3.2 3.9 5.43 6.19 5.51 1.3 4.89 3.16 1.04 0.03 5.8 1.97 6.99 7.85 5.21 1.2 2.18 5.66 0.31 5.63 2.5 5.19 2.22 1.17 3.82 4.09 0.12 7.7 2.36 0.12 0.1 4.5 0.98 2.75 7.23 1.22 2.2 1.32 0.38 7.56 
4 4 4 4 4 4 4 4 4 4 4 4 4 4 4 4 4 4 4 4 4 4 4 4 4 4 4 4 4 4 4 4 4 4 4 4 4 4 4 4 4 4 4 4 4 4 4 4 
1.76 4.57 1.91 7.81 2.03 2.59 4.16 7.66 5.76 4.1 2.59 1.26 1.23 6.06 2.82 0.17 0.52 4.82 4.57 2.48 6.14 6.26 4.6 2.27 4.29 6.75 7.96 6.71 7.64 7.57 6.42 5.05 2.56 5.63 3.3 4.27 5.71 1.33 7.6 2.95 1.26 3.82 4.51 1.92 2.87 0.4 0.47 2.26 
7.14 1.05 5.18 7.89 1.54 1.75 7.53 3.86 7.79 5.56 7.65 7.36 5.75 4.12 2.91 5.9 4.01 3.28 3.73 4.31 0.37 3.95 5.53 1.47 6.67 2.77 0.91 1.58 0.68 1.07 4.74 4.05 4 3.22 5.69 0.32 6.3 3.68 5.75 0.7 5.89 5.15 0.81 2.36 5.33 3.4 3.09 1.92 
5.15 3.16 2.79 3.13 3.01 3.1 4.1 4.9 0.43 1.1 3.88 5.07 0.76 5.71 2.18 5.49 0.66 6.81 3.29 1.07 4.82 4.86 3.25 0.33 1.33 0.22 2.93 7.75 0.15 2.03 2.05 4.12 0.98 7.13 4.48 0.45 0.1 1.05 3.75 2.75 0.11 5.86 3.44 3.77 2.94 3.59 0.63 1.88 
1.38 6 4.85 4.05 1.3 5.47 4.32 2.75 6.53 0.14 7.61 6.01 6.2 4.77 7.33 5.05 5.64 2.95 2.24 7.58 2.89 7.2 5.94 7.51 1.82 2.58 1.58 5.03 1.99 7.66 1.48 6.21 4.9 6.45 7.03 3.35 0.18 2.77 1.57 0.79 2.88 5.4 7.47 6.16 1.89 4.26 6.71 7.09 
0.52 0.41 2.47 4.41 1.01 5.32 0.06 4.87 2.65 5.95 4.59 6.03 7.03 3.73 5.86 2.09 2.75 7.54 2.57 0.23 1.31 0.42 3.41 1.52 1.05 2.08 2.73 7.57 5.22 0.24 7.56 0.32 3.2 4.9 3.44 4.21 1.75 3.86 6.24 5.32 1.01 3.58 7.93 4.75 7.88 7.85 7.73 5.01 
1.7 5.72 4.14 6.16 7.32 0.35 5.1 0.54 4.42 2.88 0.36 7.85 7.65 6.19 7.7 5.96 4.61 0.59 1.6 1.09 4.48 7.28 3.25 6.35 0 0.27 5.28 0.27 5.43 6.05 0.06 6.44 4.57 2.3 3.14 3.09 2.72 1.36 5.6 1.22 1.76 6.04 5.32 2.22 3.88 1.55 5.78 7.82 
6.83 6.64 7.6 1.04 6.9 5.23 3.83 4.77 4.88 1.43 1.98 3.63 6.55 6.79 4.52 1.55 1.97 1.27 0.96 5.11 5.36 7.76 7.74 6.33 6.53 1.55 0.93 3.01 4.36 4.21 0.77 4.71 2.12 7.75 0.23 2.05 3.07 7.92 3.48 5.57 1.54 6 3.4 5.89 3.21 4.68 4.66 0.48 
1.02 3.36 1.21 5.3 1.36 3.76 5.93 3.1 1.39 6.26 2.56 1.95 2.58 2.72 7.39 2.18 2.13 1.47 0.34 4.58 5.48 7.43 7.01 2.13 6.92 3.98 3 3.81 5.99 4.63 1.26 5.77 7.85 1.73 7.48 6.78 3.41 3.38 3.35 7.24 4.95 5.53 5.63 1.45 6.79 5.37 1.83 2.22 
1 1 1 1 1 1 1 1 1 1 1 1 1 1 1 1 1 1 1 1 1 1 1 1 1 1 1 1 1 1 1 1 1 1 1 1 1 1 1 1 1 1 1 1 1 1 1 1 
1 1 1 1 1 1 1 1 1 1 1 1 1 1 1 1 1 1 1 1 1 1 1 1 1 1 1 1 1 1 1 1 1 1 1 1 1 1 1 1 1 1 1 1 1 1 1 1 
1 1 1 1 1 1 1 1 1 1 1 1 1 1 1 1 1 1 1 1 1 1 1 1 1 1 1 1 1 1 1 1 1 1 1 1 1 1 1 1 1 1 1 1 1 1 1 1 
1 1 1 1 1 1 1 1 1 1 1 1 1 1 1 1 1 1 1 1 1 1 1 1 1 1 1 1 1 1 1 1 1 1 1 1 1 1 1 1 1 1 1 1 1 1 1 1 
1 1 1 1 1 1 1 1 1 1 1 1 1 1 1 1 1 1 1 1 1 1 1 1 1 1 1 1 1 1 1 1 1 1 1 1 1 1 1 1 1 1 1 1 1 1 1 1 
1 1 1 1 1 1 1 1 1 1 1 1 1 1 1 1 1 1 1 1 1 1 1 1 1 1 1 1 1 1 1 1 1 1 1 1 1 1 1 1 1 1 1 1 1 1 1 1 
1 1 1 1 1 1 1 1 1 1 1 1 1 1 1 1 1 1 1 1 1 1 1 1 1 1 1 1 1 1 1 1 1 1 1 1 1 1 1 1 1 1 1 1 1 1 1 1 
1 1 1 1 1 1 1 1 1 1 1 1 1 1 1 1 1 1 1 1 1 1 1 1 1 1 1 1 1 1 1 1 1 1 1 1 1 1 1 1 1 1 1 1 1 1 1 1 
1 1 1 1 1 1 1 1 1 1 1 1 1 1 1 1 1 1 1 1 1 1 1 1 1 1 1 1 1 1 1 1 1 1 1 1 1 1 1 1 1 1 1 1 1 1 1 1 
1 1 1 1 1 1 1 1 1 1 1 1 1 1 1 1 1 1 1 1 1 1 1 1 1 1 1 1 1 1 1 1 1 1 1 1 1 1 1 1 1 1 1 1 1 1 1 1 
1 1 1 1 1 1 1 1 1 1 1 1 1 1 1 1 1 1 1 1 1 1 1 1 1 1 1 1 1 1 1 1 1 1 1 1 1 1 1 1 1 1 1 1 1 1 1 1 
1 1 1 1 1 1 1 1 1 1 1 1 1 1 1 1 1 1 1 1 1 1 1 1 1 1 1 1 1 1 1 1 1 1 1 1 1 1 1 1 1 1 1 1 1 1 1 1 
0.01 0.01 0.01 0.01 0.01 0.01 0.01 0.01 0.01 0.01 0.01 0.01 0.01 0.01 0.01 0.01 0.01 0.01 0.01 0.01 0.01 0.01 0.01 0.01 0.01 0.01 0.01 0.01 0.01 0.01 0.01 0.01 0.01 0.01 0.01 0.01 0.01 0.01 0.01 0.01 0.01 0.01 0.01 0.01 0.01 0.01 0.01 0.01 
0.02 0.02 0.02 0.02 0.02 0.02 0.02 0.02 0.02 0.02 0.02 0.02 0.02 0.02 0.02 0.02 0.02 0.02 0.02 0.02 0.02 0.02 0.02 0.02 0.02 0.02 0.02 0.02 0.02 0.02 0.02 0.02 0.02 0.02 0.02 0.02 0.02 0.02 0.02 0.02 0.02 0.02 0.02 0.02 0.02 0.02 0.02 0.02 
0.03 0.03 0.03 0.03 0.03 0.03 0.03 0.03 0.03 0.03 0.03 0.03 0.03 0.03 0.03 0.03 0.03 0.03 0.03 0.03 0.03 0.03 0.03 0.03 0.03 0.03 0.03 0.03 0.03 0.03 0.03 0.03 0.03 0.03 0.03 0.03 0.03 0.03 0.03 0.03 0.03 0.03 0.03 0.03 0.03 0.03 0.03 0.03 
0.04 0.04 0.04 0.04 0.04 0.04 0.04 0.04 0.04 0.04 0.04 0.04 0.04 0.04 0.04 0.04 0.04 0.04 0.04 0.04 0.04 0.04 0.04 0.04 0.04 0.04 0.04 0.04 0.04 0.04 0.04 0.04 0.04 0.04 0.04 0.04 0.04 0.04 0.04 0.04 0.04 0.04 0.04 0.04 0.04 0.04 0.04 0.04 
0.125 0.125 0.125 0.125 0.125 0.125 0.125 0.125 0.125 0.125 0.125 0.125 0.125 0.125 0.125 0.125 0.125 0.125 0.125 0.125 0.125 0.125 0.125 0.125 0.125 0.125 0.125 0.125 0.125 0.125 0.125 0.125 0.125 0.125 0.125 0.125 0.125 0.125 0.125 0.125 0.125 0.125 0.125 0.125 0.125 0.125 0.125 0.125 
0.25 0.25 0.25 0.25 0.25 0.25 0.25 0.25 0.25 0.25 0.25 0.25 0.25 0.25 0.25 0.25 0.25 0.25 0.25 0.25 0.25 0.25 0.25 0.25 0.25 0.25 0.25 0.25 0.25 0.25 0.25 0.25 0.25 0.25 0.25 0.25 0.25 0.25 0.25 0.25 0.25 0.25 0.25 0.25 0.25 0.25 0.25 0.25 
0.375 0.375 0.375 0.375 0.375 0.375 0.375 0.375 0.375 0.375 0.375 0.375 0.375 0.375 0.375 0.375 0.375 0.375 0.375 0.375 0.375 0.375 0.375 0.375 0.375 0.375 0.375 0.375 0.375 0.375 0.375 0.375 0.375 0.375 0.375 0.375 0.375 0.375 0.375 0.375 0.375 0.375 0.375 0.375 0.375 0.375 0.375 0.375 
0.5 0.5 0.5 0.5 0.5 0.5 0.5 0.5 0.5 0.5 0.5 0.5 0.5 0.5 0.5 0.5 0.5 0.5 0.5 0.5 0.5 0.5 0.5 0.5 0.5 0.5 0.5 0.5 0.5 0.5 0.5 0.5 0.5 0.5 0.5 0.5 0.5 0.5 0.5 0.5 0.5 0.5 0.5 0.5 0.5 0.5 0.5 0.5 
0.625 0.625 0.625 0.625 0.625 0.625 0.625 0.625 0.625 0.625 0.625 0.625 0.625 0.625 0.625 0.625 0.625 0.625 0.625 0.625 0.625 0.625 0.625 0.625 0.625 0.625 0.625 0.625 0.625 0.625 0.625 0.625 0.625 0.625 0.625 0.625 0.625 0.625 0.625 0.625 0.625 0.625 0.625 0.625 0.625 0.625 0.625 0.625 
0.75 0.75 0.75 0.75 0.75 0.75 0.75 0.75 0.75 0.75 0.75 0.75 0.75 0.75 0.75 0.75 0.75 0.75 0.75 0.75 0.75 0.75 0.75 0.75 0.75 0.75 0.75 0.75 0.75 0.75 0.75 0.75 0.75 0.75 0.75 0.75 0.75 0.75 0.75 0.75 0.75 0.75 0.75 0.75 0.75 0.75 0.75 0.75 
0.875 0.875 0.875 0.875 0.875 0.875 0.875 0.875 0.875 0.875 0.875 0.875 0.875 0.875 0.875 0.875 0.875 0.875 0.875 0.875 0.875 0.875 0.875 0.875 0.875 0.875 0.875 0.875 0.875 0.875 0.875 0.875 0.875 0.875 0.875 0.875 0.875 0.875 0.875 0.875 0.875 0.875 0.875 0.875 0.875 0.875 0.875 0.875 
1 1 1 1 1 1 1 1 1 1 1 1 1 1 1 1 1 1 1 1 1 1 1 1 1 1 1 1 1 1 1 1 1 1 1 1 1 1 1 1 1 1 1 1 1 1 1 1 
